Translating instance to solver...

Set parameter TimeLimit to value 28800
Gurobi Optimizer version 11.0.2 build v11.0.2rc0 (linux64 - "Ubuntu 22.04.4 LTS")

CPU model: Intel(R) Xeon(R) Gold 5120 CPU @ 2.20GHz, instruction set [SSE2|AVX|AVX2|AVX512]
Thread count: 28 physical cores, 56 logical processors, using up to 28 threads

Academic license 2463511 - for non-commercial use only - registered to lu___@cefet-rj.br
Optimize a model with 4615 rows, 3173 columns and 12057 nonzeros
Model fingerprint: 0x921ecffd
Variable types: 1 continuous, 3172 integer (3160 binary)
Coefficient statistics:
  Matrix range     [1e+00, 1e+05]
  Objective range  [3e-01, 8e-01]
  Bounds range     [1e+00, 8e+00]
  RHS range        [1e+00, 4e+01]
Presolve removed 4023 rows and 2890 columns
Presolve time: 0.06s
Presolved: 592 rows, 283 columns, 2196 nonzeros
Variable types: 0 continuous, 283 integer (272 binary)

Root relaxation: objective 9.160074e-01, 283 iterations, 0.00 seconds (0.00 work units)

    Nodes    |    Current Node    |     Objective Bounds      |     Work
 Expl Unexpl |  Obj  Depth IntInf | Incumbent    BestBd   Gap | It/Node Time

     0     0    0.91601    0   48          -    0.91601      -     -    0s
H    0     0                       1.0617820    0.91601  13.7%     -    0s
     0     0     cutoff    0         1.06178    1.06178  0.00%     -    0s

Cutting planes:
  Learned: 1
  Gomory: 1
  Implied bound: 28
  MIR: 2
  Zero half: 4
  RLT: 12
  Relax-and-lift: 2

Explored 1 nodes (501 simplex iterations) in 0.13 seconds (0.08 work units)
Thread count was 28 (of 56 available processors)

Solution count 1: 1.06178 

Optimal solution found (tolerance 1.00e-04)
Best objective 1.061782000000e+00, best bound 1.061782000000e+00, gap 0.0000%

Solver Wallclock Time (for this epsilon): 0.1295320987701416 s
Python wallclock Time (for this epsilon): 0.524430513381958 s


Total Elapsed Time (since program call): 3.8459558486938477 s

Results:

I = 1.061782 mA
C = 47.0 points
C ~= 18.8 km^2

Minimum Epsilon for this instance = 9
Maximum Epsilon for this instance = 96

Current Epsilon = 45


Preprocessing Time (for this epsilon): 0.0017285346984863281 s


Updated solution vectors:
sol_I = [-0.611782,-0.9176730000000001,-1.061782,-1.061782,-1.061782]
sol_C = [9.0,19.0,38.0,49.0,47.0]
sol_eps = [9,18,27,36,45]
sol_gap = [0.0,0.0,0.0,0.0,0.0]
